5682808421156288894504,13,1,2,010,10,1,2,011,7,1,2,011,9,1,2,03,4,1,2,014,5,1,2,09,5,1,2,02,9,1,2,05,9,1,2,012,7,1,2,04,1,1,2,08,1,1,2,01,1,1,2,08,10,1,2,015,10,1,2,011,1,1,2,01,10,1,2,06,3,1,2,08,3,1,2,012,4,1,2,015,14,1,2,07,12,1,2,06,4,1,2,06,9,1,2,012,15,1,2,07,3,1,2,014,1,1,2,07,9,1,2,012,7,1,2,012,2,1,2,07,13,1,2,01,15,1,2,012,15,1,2,014,2,1,2,03,5,1,2,012,5,1,2,012,3,1,2,08,2,1,2,014,15,1,2,01,13,1,2,02,2,1,2,07,6,1,2,05,3,1,2,04,8,1,2,012,9,1,2,06,14,1,2,013,8,1,2,09,4,1,2,014,14,1,2,09,2,1,2,0